p cnf 225 1089
1 2 3 4 5 0
6 7 8 9 10 0
11 12 13 14 15 0
16 17 18 19 20 0
21 22 23 24 25 0
26 27 28 29 30 0
31 32 33 34 35 0
36 37 38 39 40 0
41 42 43 44 45 0
46 47 48 49 50 0
51 52 53 54 55 0
56 57 58 59 60 0
61 62 63 64 65 0
66 67 68 69 70 0
71 72 73 74 75 0
76 77 78 79 80 0
81 82 83 84 85 0
86 87 88 89 90 0
91 92 93 94 95 0
96 97 98 99 100 0
101 102 103 104 105 0
106 107 108 109 110 0
111 112 113 114 115 0
116 117 118 119 120 0
121 122 123 124 125 0
126 127 128 129 130 0
131 132 133 134 135 0
136 137 138 139 140 0
141 142 143 144 145 0
146 147 148 149 150 0
151 152 153 154 155 0
156 157 158 159 160 0
161 162 163 164 165 0
166 167 168 169 170 0
171 172 173 174 175 0
176 177 178 179 180 0
181 182 183 184 185 0
186 187 188 189 190 0
191 192 193 194 195 0
196 197 198 199 200 0
201 202 203 204 205 0
206 207 208 209 210 0
211 212 213 214 215 0
216 217 218 219 220 0
221 222 223 224 225 0
-1 -2 0
-1 -3 0
-1 -4 0
-1 -5 0
-2 -3 0
-2 -4 0
-2 -5 0
-3 -4 0
-3 -5 0
-4 -5 0
-6 -7 0
-6 -8 0
-6 -9 0
-6 -10 0
-7 -8 0
-7 -9 0
-7 -10 0
-8 -9 0
-8 -10 0
-9 -10 0
-11 -12 0
-11 -13 0
-11 -14 0
-11 -15 0
-12 -13 0
-12 -14 0
-12 -15 0
-13 -14 0
-13 -15 0
-14 -15 0
-16 -17 0
-16 -18 0
-16 -19 0
-16 -20 0
-17 -18 0
-17 -19 0
-17 -20 0
-18 -19 0
-18 -20 0
-19 -20 0
-21 -22 0
-21 -23 0
-21 -24 0
-21 -25 0
-22 -23 0
-22 -24 0
-22 -25 0
-23 -24 0
-23 -25 0
-24 -25 0
-26 -27 0
-26 -28 0
-26 -29 0
-26 -30 0
-27 -28 0
-27 -29 0
-27 -30 0
-28 -29 0
-28 -30 0
-29 -30 0
-31 -32 0
-31 -33 0
-31 -34 0
-31 -35 0
-32 -33 0
-32 -34 0
-32 -35 0
-33 -34 0
-33 -35 0
-34 -35 0
-36 -37 0
-36 -38 0
-36 -39 0
-36 -40 0
-37 -38 0
-37 -39 0
-37 -40 0
-38 -39 0
-38 -40 0
-39 -40 0
-41 -42 0
-41 -43 0
-41 -44 0
-41 -45 0
-42 -43 0
-42 -44 0
-42 -45 0
-43 -44 0
-43 -45 0
-44 -45 0
-46 -47 0
-46 -48 0
-46 -49 0
-46 -50 0
-47 -48 0
-47 -49 0
-47 -50 0
-48 -49 0
-48 -50 0
-49 -50 0
-51 -52 0
-51 -53 0
-51 -54 0
-51 -55 0
-52 -53 0
-52 -54 0
-52 -55 0
-53 -54 0
-53 -55 0
-54 -55 0
-56 -57 0
-56 -58 0
-56 -59 0
-56 -60 0
-57 -58 0
-57 -59 0
-57 -60 0
-58 -59 0
-58 -60 0
-59 -60 0
-61 -62 0
-61 -63 0
-61 -64 0
-61 -65 0
-62 -63 0
-62 -64 0
-62 -65 0
-63 -64 0
-63 -65 0
-64 -65 0
-66 -67 0
-66 -68 0
-66 -69 0
-66 -70 0
-67 -68 0
-67 -69 0
-67 -70 0
-68 -69 0
-68 -70 0
-69 -70 0
-71 -72 0
-71 -73 0
-71 -74 0
-71 -75 0
-72 -73 0
-72 -74 0
-72 -75 0
-73 -74 0
-73 -75 0
-74 -75 0
-76 -77 0
-76 -78 0
-76 -79 0
-76 -80 0
-77 -78 0
-77 -79 0
-77 -80 0
-78 -79 0
-78 -80 0
-79 -80 0
-81 -82 0
-81 -83 0
-81 -84 0
-81 -85 0
-82 -83 0
-82 -84 0
-82 -85 0
-83 -84 0
-83 -85 0
-84 -85 0
-86 -87 0
-86 -88 0
-86 -89 0
-86 -90 0
-87 -88 0
-87 -89 0
-87 -90 0
-88 -89 0
-88 -90 0
-89 -90 0
-91 -92 0
-91 -93 0
-91 -94 0
-91 -95 0
-92 -93 0
-92 -94 0
-92 -95 0
-93 -94 0
-93 -95 0
-94 -95 0
-96 -97 0
-96 -98 0
-96 -99 0
-96 -100 0
-97 -98 0
-97 -99 0
-97 -100 0
-98 -99 0
-98 -100 0
-99 -100 0
-101 -102 0
-101 -103 0
-101 -104 0
-101 -105 0
-102 -103 0
-102 -104 0
-102 -105 0
-103 -104 0
-103 -105 0
-104 -105 0
-106 -107 0
-106 -108 0
-106 -109 0
-106 -110 0
-107 -108 0
-107 -109 0
-107 -110 0
-108 -109 0
-108 -110 0
-109 -110 0
-111 -112 0
-111 -113 0
-111 -114 0
-111 -115 0
-112 -113 0
-112 -114 0
-112 -115 0
-113 -114 0
-113 -115 0
-114 -115 0
-116 -117 0
-116 -118 0
-116 -119 0
-116 -120 0
-117 -118 0
-117 -119 0
-117 -120 0
-118 -119 0
-118 -120 0
-119 -120 0
-121 -122 0
-121 -123 0
-121 -124 0
-121 -125 0
-122 -123 0
-122 -124 0
-122 -125 0
-123 -124 0
-123 -125 0
-124 -125 0
-126 -127 0
-126 -128 0
-126 -129 0
-126 -130 0
-127 -128 0
-127 -129 0
-127 -130 0
-128 -129 0
-128 -130 0
-129 -130 0
-131 -132 0
-131 -133 0
-131 -134 0
-131 -135 0
-132 -133 0
-132 -134 0
-132 -135 0
-133 -134 0
-133 -135 0
-134 -135 0
-136 -137 0
-136 -138 0
-136 -139 0
-136 -140 0
-137 -138 0
-137 -139 0
-137 -140 0
-138 -139 0
-138 -140 0
-139 -140 0
-141 -142 0
-141 -143 0
-141 -144 0
-141 -145 0
-142 -143 0
-142 -144 0
-142 -145 0
-143 -144 0
-143 -145 0
-144 -145 0
-146 -147 0
-146 -148 0
-146 -149 0
-146 -150 0
-147 -148 0
-147 -149 0
-147 -150 0
-148 -149 0
-148 -150 0
-149 -150 0
-151 -152 0
-151 -153 0
-151 -154 0
-151 -155 0
-152 -153 0
-152 -154 0
-152 -155 0
-153 -154 0
-153 -155 0
-154 -155 0
-156 -157 0
-156 -158 0
-156 -159 0
-156 -160 0
-157 -158 0
-157 -159 0
-157 -160 0
-158 -159 0
-158 -160 0
-159 -160 0
-161 -162 0
-161 -163 0
-161 -164 0
-161 -165 0
-162 -163 0
-162 -164 0
-162 -165 0
-163 -164 0
-163 -165 0
-164 -165 0
-166 -167 0
-166 -168 0
-166 -169 0
-166 -170 0
-167 -168 0
-167 -169 0
-167 -170 0
-168 -169 0
-168 -170 0
-169 -170 0
-171 -172 0
-171 -173 0
-171 -174 0
-171 -175 0
-172 -173 0
-172 -174 0
-172 -175 0
-173 -174 0
-173 -175 0
-174 -175 0
-176 -177 0
-176 -178 0
-176 -179 0
-176 -180 0
-177 -178 0
-177 -179 0
-177 -180 0
-178 -179 0
-178 -180 0
-179 -180 0
-181 -182 0
-181 -183 0
-181 -184 0
-181 -185 0
-182 -183 0
-182 -184 0
-182 -185 0
-183 -184 0
-183 -185 0
-184 -185 0
-186 -187 0
-186 -188 0
-186 -189 0
-186 -190 0
-187 -188 0
-187 -189 0
-187 -190 0
-188 -189 0
-188 -190 0
-189 -190 0
-191 -192 0
-191 -193 0
-191 -194 0
-191 -195 0
-192 -193 0
-192 -194 0
-192 -195 0
-193 -194 0
-193 -195 0
-194 -195 0
-196 -197 0
-196 -198 0
-196 -199 0
-196 -200 0
-197 -198 0
-197 -199 0
-197 -200 0
-198 -199 0
-198 -200 0
-199 -200 0
-201 -202 0
-201 -203 0
-201 -204 0
-201 -205 0
-202 -203 0
-202 -204 0
-202 -205 0
-203 -204 0
-203 -205 0
-204 -205 0
-206 -207 0
-206 -208 0
-206 -209 0
-206 -210 0
-207 -208 0
-207 -209 0
-207 -210 0
-208 -209 0
-208 -210 0
-209 -210 0
-211 -212 0
-211 -213 0
-211 -214 0
-211 -215 0
-212 -213 0
-212 -214 0
-212 -215 0
-213 -214 0
-213 -215 0
-214 -215 0
-216 -217 0
-216 -218 0
-216 -219 0
-216 -220 0
-217 -218 0
-217 -219 0
-217 -220 0
-218 -219 0
-218 -220 0
-219 -220 0
-221 -222 0
-221 -223 0
-221 -224 0
-221 -225 0
-222 -223 0
-222 -224 0
-222 -225 0
-223 -224 0
-223 -225 0
-224 -225 0
-3 -53 0
-1 -52 0
-2 -99 0
-5 -98 0
-1 -121 0
-2 -121 0
-3 -148 0
-3 -147 0
-1 -167 0
-3 -166 0
-5 -175 0
-1 -173 0
-5 -224 0
-5 -223 0
-8 -57 0
-9 -60 0
-8 -61 0
-7 -65 0
-7 -69 0
-6 -70 0
-10 -91 0
-7 -92 0
-9 -108 0
-10 -108 0
-6 -115 0
-9 -112 0
-10 -120 0
-10 -118 0
-7 -130 0
-10 -128 0
-9 -132 0
-10 -135 0
-6 -147 0
-10 -149 0
-6 -165 0
-6 -164 0
-10 -175 0
-10 -174 0
-10 -178 0
-6 -180 0
-14 -16 0
-13 -19 0
-14 -43 0
-15 -45 0
-14 -68 0
-13 -70 0
-13 -79 0
-12 -79 0
-13 -108 0
-15 -110 0
-13 -116 0
-11 -116 0
-12 -123 0
-12 -122 0
-12 -142 0
-15 -142 0
-14 -170 0
-15 -167 0
-14 -224 0
-15 -224 0
-19 -22 0
-19 -25 0
-17 -28 0
-20 -28 0
-16 -40 0
-17 -39 0
-18 -55 0
-19 -54 0
-17 -94 0
-19 -93 0
-16 -98 0
-17 -100 0
-20 -102 0
-19 -103 0
-20 -108 0
-19 -107 0
-17 -116 0
-16 -118 0
-19 -144 0
-18 -142 0
-16 -151 0
-17 -153 0
-17 -169 0
-18 -170 0
-18 -206 0
-16 -210 0
-17 -222 0
-20 -222 0
-25 -33 0
-21 -31 0
-21 -38 0
-22 -37 0
-24 -51 0
-23 -54 0
-21 -64 0
-21 -62 0
-23 -95 0
-25 -95 0
-21 -98 0
-24 -96 0
-23 -125 0
-24 -124 0
-25 -159 0
-23 -159 0
-23 -183 0
-25 -185 0
-24 -208 0
-25 -207 0
-24 -223 0
-21 -222 0
-28 -50 0
-30 -50 0
-27 -54 0
-26 -52 0
-29 -61 0
-28 -62 0
-28 -66 0
-30 -69 0
-30 -133 0
-28 -131 0
-29 -138 0
-27 -137 0
-26 -150 0
-29 -147 0
-26 -152 0
-27 -151 0
-28 -175 0
-29 -172 0
-30 -180 0
-29 -179 0
-27 -182 0
-27 -184 0
-28 -187 0
-28 -188 0
-27 -199 0
-29 -200 0
-26 -219 0
-29 -218 0
-33 -36 0
-31 -37 0
-31 -42 0
-35 -45 0
-35 -55 0
-32 -52 0
-31 -64 0
-33 -64 0
-35 -67 0
-34 -66 0
-34 -81 0
-32 -83 0
-32 -98 0
-34 -98 0
-31 -106 0
-31 -109 0
-34 -114 0
-32 -112 0
-33 -171 0
-31 -174 0
-34 -180 0
-33 -179 0
-34 -191 0
-32 -191 0
-31 -200 0
-32 -197 0
-33 -205 0
-34 -205 0
-38 -42 0
-36 -45 0
-36 -72 0
-39 -72 0
-36 -76 0
-38 -78 0
-39 -89 0
-38 -90 0
-37 -150 0
-36 -146 0
-38 -161 0
-38 -162 0
-37 -168 0
-39 -169 0
-40 -185 0
-38 -185 0
-39 -212 0
-40 -212 0
-44 -53 0
-43 -52 0
-41 -76 0
-45 -78 0
-45 -84 0
-44 -84 0
-42 -91 0
-41 -94 0
-42 -112 0
-43 -112 0
-44 -141 0
-43 -142 0
-43 -151 0
-44 -151 0
-45 -156 0
-42 -156 0
-44 -198 0
-41 -199 0
-43 -215 0
-44 -213 0
-43 -224 0
-42 -221 0
-47 -60 0
-48 -56 0
-48 -71 0
-48 -74 0
-50 -80 0
-50 -76 0
-46 -121 0
-47 -121 0
-48 -205 0
-50 -204 0
-50 -222 0
-47 -223 0
-55 -59 0
-55 -57 0
-51 -64 0
-53 -64 0
-55 -83 0
-54 -85 0
-52 -89 0
-54 -86 0
-54 -98 0
-51 -99 0
-51 -104 0
-55 -103 0
-51 -119 0
-54 -120 0
-55 -134 0
-51 -132 0
-54 -141 0
-53 -143 0
-53 -164 0
-53 -161 0
-53 -187 0
-52 -188 0
-52 -216 0
-55 -216 0
-56 -79 0
-58 -78 0
-56 -85 0
-56 -82 0
-59 -88 0
-58 -87 0
-59 -95 0
-57 -91 0
-60 -108 0
-57 -108 0
-59 -115 0
-60 -111 0
-60 -122 0
-58 -121 0
-57 -134 0
-58 -131 0
-59 -138 0
-60 -139 0
-59 -152 0
-57 -153 0
-56 -187 0
-57 -188 0
-57 -196 0
-56 -199 0
-58 -212 0
-58 -211 0
-59 -225 0
-57 -225 0
-65 -67 0
-64 -70 0
-64 -79 0
-65 -78 0
-63 -84 0
-63 -85 0
-65 -92 0
-64 -93 0
-61 -133 0
-64 -134 0
-64 -164 0
-62 -161 0
-65 -179 0
-63 -177 0
-62 -183 0
-61 -183 0
-64 -192 0
-63 -193 0
-62 -199 0
-64 -197 0
-64 -223 0
-65 -224 0
-66 -71 0
-70 -75 0
-70 -110 0
-69 -106 0
-66 -129 0
-67 -128 0
-66 -145 0
-70 -144 0
-70 -151 0
-68 -152 0
-68 -179 0
-70 -180 0
-69 -225 0
-66 -224 0
-73 -87 0
-75 -89 0
-74 -104 0
-74 -103 0
-74 -121 0
-75 -124 0
-71 -142 0
-75 -142 0
-75 -172 0
-73 -174 0
-73 -201 0
-71 -204 0
-72 -217 0
-74 -218 0
-77 -100 0
-80 -96 0
-77 -112 0
-79 -112 0
-80 -128 0
-79 -128 0
-76 -161 0
-77 -164 0
-77 -173 0
-76 -172 0
-77 -185 0
-79 -185 0
-85 -94 0
-83 -92 0
-85 -110 0
-83 -107 0
-82 -121 0
-83 -125 0
-81 -133 0
-83 -134 0
-82 -142 0
-81 -141 0
-81 -154 0
-82 -154 0
-84 -165 0
-81 -165 0
-83 -176 0
-84 -176 0
-85 -181 0
-81 -185 0
-82 -189 0
-82 -190 0
-84 -213 0
-81 -214 0
-85 -217 0
-81 -220 0
-90 -133 0
-87 -134 0
-86 -150 0
-87 -150 0
-87 -166 0
-87 -168 0
-88 -178 0
-87 -178 0
-86 -182 0
-87 -183 0
-90 -189 0
-88 -186 0
-88 -212 0
-87 -214 0
-93 -98 0
-92 -97 0
-91 -136 0
-94 -139 0
-93 -158 0
-95 -160 0
-95 -164 0
-91 -162 0
-95 -189 0
-91 -189 0
-92 -204 0
-91 -202 0
-93 -207 0
-94 -208 0
-93 -219 0
-91 -216 0
-93 -221 0
-95 -224 0
-100 -116 0
-97 -120 0
-99 -135 0
-98 -134 0
-100 -140 0
-97 -138 0
-100 -144 0
-97 -143 0
-98 -150 0
-98 -147 0
-96 -195 0
-96 -192 0
-98 -196 0
-96 -198 0
-98 -202 0
-98 -205 0
-98 -215 0
-98 -213 0
-100 -217 0
-100 -218 0
-104 -114 0
-102 -111 0
-103 -135 0
-103 -134 0
-105 -152 0
-101 -151 0
-102 -170 0
-104 -167 0
-102 -214 0
-102 -211 0
-107 -155 0
-108 -152 0
-109 -172 0
-108 -171 0
-109 -192 0
-109 -194 0
-107 -222 0
-110 -221 0
-115 -117 0
-113 -116 0
-113 -123 0
-111 -123 0
-115 -144 0
-111 -143 0
-113 -146 0
-112 -149 0
-115 -165 0
-115 -164 0
-115 -166 0
-113 -170 0
-111 -175 0
-112 -175 0
-115 -176 0
-114 -179 0
-111 -190 0
-114 -188 0
-113 -197 0
-112 -199 0
-119 -122 0
-116 -121 0
-117 -133 0
-117 -134 0
-117 -145 0
-118 -144 0
-120 -164 0
-120 -165 0
-119 -169 0
-116 -170 0
-116 -171 0
-118 -171 0
-119 -178 0
-116 -178 0
-119 -190 0
-120 -188 0
-118 -202 0
-117 -201 0
-116 -216 0
-120 -220 0
-123 -128 0
-124 -126 0
-125 -143 0
-123 -144 0
-124 -147 0
-121 -149 0
-123 -171 0
-124 -175 0
-121 -184 0
-122 -185 0
-124 -191 0
-123 -192 0
-122 -200 0
-122 -199 0
-123 -220 0
-124 -218 0
-128 -145 0
-128 -143 0
-129 -148 0
-129 -150 0
-126 -156 0
-129 -160 0
-127 -161 0
-128 -163 0
-130 -175 0
-127 -174 0
-126 -204 0
-130 -202 0
-131 -147 0
-135 -148 0
-133 -164 0
-134 -161 0
-133 -184 0
-135 -183 0
-135 -203 0
-132 -201 0
-134 -220 0
-132 -216 0
-137 -156 0
-139 -157 0
-137 -182 0
-138 -185 0
-136 -221 0
-139 -221 0
-145 -156 0
-142 -159 0
-142 -161 0
-141 -163 0
-142 -169 0
-141 -168 0
-144 -176 0
-145 -179 0
-141 -200 0
-142 -198 0
-143 -219 0
-142 -220 0
-148 -166 0
-150 -168 0
-147 -214 0
-150 -212 0
-155 -182 0
-155 -183 0
-153 -189 0
-153 -190 0
-153 -192 0
-152 -192 0
-159 -185 0
-159 -183 0
-160 -189 0
-159 -186 0
-157 -220 0
-159 -220 0
-160 -224 0
-156 -223 0
-164 -172 0
-164 -174 0
-164 -197 0
-161 -198 0
-163 -221 0
-164 -222 0
-169 -172 0
-169 -173 0
-170 -176 0
-168 -179 0
-166 -196 0
-167 -196 0
-166 -211 0
-167 -212 0
-170 -218 0
-170 -220 0
-175 -183 0
-174 -182 0
-173 -186 0
-173 -190 0
-175 -195 0
-173 -192 0
-175 -207 0
-174 -210 0
-173 -221 0
-173 -223 0
-179 -193 0
-177 -191 0
-177 -214 0
-178 -213 0
-177 -217 0
-180 -220 0
-177 -222 0
-178 -225 0
-184 -190 0
-183 -187 0
-183 -203 0
-182 -203 0
-188 -217 0
-187 -217 0
-192 -207 0
-192 -208 0
-200 -214 0
-197 -211 0
-198 -224 0
-200 -224 0
-202 -213 0
-205 -211 0
-208 -220 0
-206 -216 0
-207 -225 0
-210 -222 0
-216 -223 0
-218 -223 0
